RT is False
Default write of storage_offers_DA.csv just to have a file (but constraint should be inactive)
Reading model...
...model read.
creating competitive generators file...
...competitive generators recorded.
Loading data...
.. day-ahead data read.
Compiling instance...
...instance created.
Creating Offer Mitigation (model will solve as dispatch if TRUE)...
NOTE: storage offers will not be mitigated
...storage offer mitigation file created
Converting model to MPEC...
...converted
NOTE: initial MIP solve with only storage competitive to get feasible solution
Solving...

Welcome to IBM(R) ILOG(R) CPLEX(R) Interactive Optimizer 12.9.0.0
  with Simplex, Mixed Integer & Barrier Optimizers
5725-A06 5725-A29 5724-Y48 5724-Y49 5724-Y54 5724-Y55 5655-Y21
Copyright IBM Corp. 1988, 2019.  All Rights Reserved.

Type 'help' for a list of available commands.
Type 'help' followed by a command name for more
information on commands.

CPLEX> Logfile 'cplex.log' closed.
Logfile 'C:\Users\Luke\Desktop\test919\logs\tmpf_za1zah.cplex.log' open.
CPLEX> New value for parallel optimization mode: -1
CPLEX> New value for mixed integer optimality gap tolerance: 0.01
CPLEX> New value for integrality tolerance: 1e-09
CPLEX> New value for feasibility tolerance: 0.01
CPLEX> New value for deterministic time limit in ticks: 75000
CPLEX> Problem 'C:\Users\Luke\Desktop\test919\logs\tmp1ht2q7bo.pyomo.lp' read.
Read time = 0.20 sec. (14.73 ticks)
CPLEX> Problem name         : C:\Users\Luke\Desktop\test919\logs\tmp1ht2q7bo.pyomo.lp
Objective sense      : Maximize
Variables            :   53805  [Nneg: 1,  Box: 22000,  Free: 4464,
                                 Binary: 27340]
Objective nonzeros   :    9069
Linear constraints   :  123205  [Less: 41346,  Greater: 59096,  Equal: 22763]
  Nonzeros           :  291890
  RHS nonzeros       :   67580

Variables            : Min LB: -5000.000        Max UB: 1000000.       
Objective nonzeros   : Min   : 0.1000000        Max   : 722.0000       
Linear constraints   :
  Nonzeros           : Min   : 0.1000000        Max   : 1000000.       
  RHS nonzeros       : Min   : 0.1000000        Max   : 1000000.       
CPLEX> CPXPARAM_Parallel                                -1
CPXPARAM_Simplex_Tolerances_Feasibility          0.01
CPXPARAM_DetTimeLimit                            75000
CPXPARAM_MIP_Tolerances_MIPGap                   0.01
CPXPARAM_MIP_Tolerances_Integrality              1.0000000000000001e-09
Tried aggregator 3 times.
MIP Presolve eliminated 88227 rows and 18605 columns.
MIP Presolve added 3491 rows and 0 columns.
MIP Presolve modified 24971 coefficients.
Aggregator did 12996 substitutions.
Reduced MIP has 25473 rows, 21726 columns, and 72468 nonzeros.
Reduced MIP has 8582 binaries, 0 generals, 0 SOSs, and 0 indicators.
Presolve time = 0.25 sec. (176.94 ticks)
Probing fixed 398 vars, tightened 2879 bounds.
Probing time = 1.33 sec. (890.15 ticks)
Tried aggregator 2 times.
MIP Presolve eliminated 901 rows and 802 columns.
MIP Presolve modified 2281 coefficients.
Aggregator did 42 substitutions.
Reduced MIP has 24530 rows, 20882 columns, and 69728 nonzeros.
Reduced MIP has 8182 binaries, 0 generals, 0 SOSs, and 0 indicators.
Presolve time = 0.11 sec. (75.86 ticks)
Probing time = 0.03 sec. (16.31 ticks)
Clique table members: 6336.
MIP emphasis: balance optimality and feasibility.
MIP search method: dynamic search.
Parallel mode: opportunistic, using up to 24 threads.
Root relaxation solution time = 0.48 sec. (335.29 ticks)

        Nodes                                         Cuts/
   Node  Left     Objective  IInf  Best Integer    Best Bound    ItCnt     Gap

      0     0     4719.6181  2058                   4719.6181     7289         
      0     0     4719.6181    10                    Cuts: 13     7295         
      0     0     4719.6181    13                     Cuts: 5     7304         
      0     8    infeasible                         4719.6181     7409         
Elapsed time = 8.63 sec. (5494.84 ticks, tree = 0.02 MB, solutions = 0)
*    14    17      integral     0     4713.4966     4718.0248     7654    0.10%
*    46+    9                         4718.0248     4718.0248             0.00%

Clique cuts applied:  1
Flow cuts applied:  3
Mixed integer rounding cuts applied:  1
Gomory fractional cuts applied:  4

Root node processing (before b&c):
  Real time             =    8.30 sec. (5488.78 ticks)
Parallel b&c, 24 threads:
  Real time             =    0.61 sec. (172.56 ticks)
  Sync time (average)   =    0.16 sec.
  Wait time (average)   =    0.00 sec.
                          ------------
Total (root+branch&cut) =    8.91 sec. (5661.34 ticks)

Solution pool: 4 solutions saved.

MIP - Integer optimal solution:  Objective =  4.7180247509e+03
Solution time =    8.91 sec.  Iterations = 7753  Nodes = 66
Deterministic time = 5661.49 ticks  (635.69 ticks/sec)

CPLEX> Incumbent solution written to file 'C:\Users\Luke\Desktop\test919\logs\tmpbdg9bf2m.cplex.sol'.
CPLEX> NOTE: no warmstart specified for MIP iteration, default behavior is true
NOTE: resolving with all competitive generators using storage-only solution to warmstart
Solving...

Welcome to IBM(R) ILOG(R) CPLEX(R) Interactive Optimizer 12.9.0.0
  with Simplex, Mixed Integer & Barrier Optimizers
5725-A06 5725-A29 5724-Y48 5724-Y49 5724-Y54 5724-Y55 5655-Y21
Copyright IBM Corp. 1988, 2019.  All Rights Reserved.

Type 'help' for a list of available commands.
Type 'help' followed by a command name for more
information on commands.

CPLEX> Logfile 'cplex.log' closed.
Logfile 'C:\Users\Luke\Desktop\test919\logs\tmp70clzpiq.cplex.log' open.
CPLEX> New value for parallel optimization mode: -1
CPLEX> New value for mixed integer optimality gap tolerance: 0.01
CPLEX> New value for integrality tolerance: 1e-09
CPLEX> New value for feasibility tolerance: 0.01
CPLEX> New value for deterministic time limit in ticks: 75000
CPLEX> Problem 'C:\Users\Luke\Desktop\test919\logs\tmpeaur0wck.pyomo.lp' read.
Read time = 0.19 sec. (14.75 ticks)
CPLEX> MIP start file 'C:\Users\Luke\Desktop\test919\logs\tmpe7vyo8og.cplex.mst' read.
CPLEX> Problem name         : C:\Users\Luke\Desktop\test919\logs\tmpeaur0wck.pyomo.lp
Objective sense      : Maximize
Variables            :   54525  [Nneg: 1,  Box: 22720,  Free: 4464,
                                 Binary: 27340]
Objective nonzeros   :    9789
Linear constraints   :  123205  [Less: 41346,  Greater: 59096,  Equal: 22763]
  Nonzeros           :  291890
  RHS nonzeros       :   67580

Variables            : Min LB: -5000.000        Max UB: 1000000.       
Objective nonzeros   : Min   : 0.1000000        Max   : 722.0000       
Linear constraints   :
  Nonzeros           : Min   : 0.1000000        Max   : 1000000.       
  RHS nonzeros       : Min   : 0.1000000        Max   : 1000000.       
CPLEX> CPXPARAM_Parallel                                -1
CPXPARAM_Simplex_Tolerances_Feasibility          0.01
CPXPARAM_DetTimeLimit                            75000
CPXPARAM_MIP_Tolerances_MIPGap                   0.01
CPXPARAM_MIP_Tolerances_Integrality              1.0000000000000001e-09
Warning:  No solution found from 1 MIP starts.
Retaining values of one MIP start for possible repair.
Tried aggregator 3 times.
MIP Presolve eliminated 88227 rows and 19325 columns.
MIP Presolve added 3491 rows and 0 columns.
MIP Presolve modified 24971 coefficients.
Aggregator did 12996 substitutions.
Reduced MIP has 25473 rows, 21726 columns, and 72468 nonzeros.
Reduced MIP has 8582 binaries, 0 generals, 0 SOSs, and 0 indicators.
Presolve time = 0.25 sec. (177.30 ticks)
Probing fixed 398 vars, tightened 2879 bounds.
Probing time = 1.31 sec. (890.15 ticks)
Tried aggregator 2 times.
MIP Presolve eliminated 901 rows and 802 columns.
MIP Presolve modified 2281 coefficients.
Aggregator did 42 substitutions.
Reduced MIP has 24530 rows, 20882 columns, and 69728 nonzeros.
Reduced MIP has 8182 binaries, 0 generals, 0 SOSs, and 0 indicators.
Presolve time = 0.09 sec. (75.86 ticks)
Probing time = 0.03 sec. (16.31 ticks)
Clique table members: 6336.
MIP emphasis: balance optimality and feasibility.
MIP search method: dynamic search.
Parallel mode: opportunistic, using up to 24 threads.
Root relaxation solution time = 0.50 sec. (335.29 ticks)

        Nodes                                         Cuts/
   Node  Left     Objective  IInf  Best Integer    Best Bound    ItCnt     Gap

      0     0     4719.6181  2058                   4719.6181     7289         
      0     0     4719.6181    10                    Cuts: 13     7295         
      0     0     4719.6181    13                     Cuts: 5     7304         
*     0+    0                         4596.0501     4719.6181             2.69%
Repair heuristic succeeded.

Repeating presolve.
Tried aggregator 3 times.
MIP Presolve eliminated 10594 rows and 8212 columns.
MIP Presolve modified 29617 coefficients.
Aggregator did 339 substitutions.
Reduced MIP has 13597 rows, 12331 columns, and 40663 nonzeros.
Reduced MIP has 4615 binaries, 0 generals, 0 SOSs, and 0 indicators.
Presolve time = 0.11 sec. (76.44 ticks)
Probing fixed 1154 vars, tightened 42971 bounds.
Probing time = 0.16 sec. (94.24 ticks)
Cover probing fixed 34 vars, tightened 1943 bounds.
Tried aggregator 4 times.
MIP Presolve eliminated 6433 rows and 5944 columns.
MIP Presolve modified 3051 coefficients.
Aggregator did 74 substitutions.
Reduced MIP has 7090 rows, 6307 columns, and 22808 nonzeros.
Reduced MIP has 2285 binaries, 0 generals, 0 SOSs, and 0 indicators.
Presolve time = 0.03 sec. (30.60 ticks)
Probing fixed 42 vars, tightened 3837 bounds.
Probing time = 0.03 sec. (18.69 ticks)
Tried aggregator 2 times.
MIP Presolve eliminated 162 rows and 135 columns.
MIP Presolve modified 1713 coefficients.
Aggregator did 7 substitutions.
Reduced MIP has 6921 rows, 6165 columns, and 22338 nonzeros.
Reduced MIP has 2225 binaries, 0 generals, 0 SOSs, and 0 indicators.
Presolve time = 0.02 sec. (12.93 ticks)
Probing fixed 20 vars, tightened 2487 bounds.
Probing time = 0.02 sec. (14.18 ticks)
Tried aggregator 2 times.
MIP Presolve eliminated 71 rows and 57 columns.
MIP Presolve modified 1388 coefficients.
Aggregator did 2 substitutions.
Reduced MIP has 6848 rows, 6106 columns, and 22110 nonzeros.
Reduced MIP has 2202 binaries, 0 generals, 0 SOSs, and 0 indicators.
Presolve time = 0.02 sec. (19.01 ticks)
Represolve time = 0.55 sec. (337.56 ticks)
Probing fixed 16 vars, tightened 1821 bounds.
Probing time = 0.03 sec. (10.42 ticks)
Clique table members: 3601.
MIP emphasis: balance optimality and feasibility.
MIP search method: dynamic search.
Parallel mode: opportunistic, using up to 24 threads.
Root relaxation solution time = 0.13 sec. (130.81 ticks)

        Nodes                                         Cuts/
   Node  Left     Objective  IInf  Best Integer    Best Bound    ItCnt     Gap

*     0+    0                         4596.0501     4719.6181             2.69%
      0     0     4719.6181    58     4596.0501     4719.6181     9967    2.69%
      0     0     4719.6181     2     4596.0501       Cuts: 5     9973    2.69%
      0     0     4719.6181     4     4596.0501       Cuts: 2     9978    2.69%
      0     0     4719.6181     2     4596.0501       Cuts: 5     9981    2.69%
*     0+    0                         4694.1674     4719.6181             0.54%

Clique cuts applied:  2
Implied bound cuts applied:  2
Mixed integer rounding cuts applied:  1
Lift and project cuts applied:  1
Gomory fractional cuts applied:  1

Root node processing (before b&c):
  Real time             =    9.50 sec. (6351.23 ticks)
Parallel b&c, 24 threads:
  Real time             =    0.00 sec. (0.00 ticks)
  Sync time (average)   =    0.00 sec.
  Wait time (average)   =    0.00 sec.
                          ------------
Total (root+branch&cut) =    9.50 sec. (6351.23 ticks)

Solution pool: 2 solutions saved.

MIP - Integer optimal, tolerance (0.01/1e-06):  Objective =  4.6941673516e+03
Current MIP best bound =  4.7196181384e+03 (gap = 25.4508, 0.54%)
Solution time =    9.50 sec.  Iterations = 9981  Nodes = 0 (1)
Deterministic time = 6351.39 ticks  (668.57 ticks/sec)

CPLEX> Incumbent solution written to file 'C:\Users\Luke\Desktop\test919\logs\tmpxxjwt4d4.cplex.sol'.
CPLEX> Exporting results... 
